/*********************************************
 * OPL 12.6.3.0 Data
 * Author: wolodija
 * Creation Date: 12-12-2016 at 21:05:32
 *********************************************/

m = 3;
p = 1;
n = 1;

x = [
     [[0] [1] [0]]
     [[0] [0] [1]]
     [[0] [0] [0]]
     ];

v = [
     [[0] [2] [0]]
     [[0] [0] [1]]
     [[0] [0] [0]]
     ];





costs = [
	[0, 2, 0],
	[2, 0, 2],
	[0, 2, 0]
];


demands = [
	[1]
];


K = [
	{1}
];

O = [
	[1]
];